67358.4
118 117 116 115 114 113 112 111 110 109 108 107 106 94 93 92 91 90 89 88 87 86 62 63 64 65 66 67 68 69 70 71 102 104 105 103 119 121 0 2 1 3 26 27 33 34 35 55 54 61 60 59 58 56 30 31 32 28 29 57 36 24 38 37 40 39 23 22 25 7 6 20 19 18 17 8 9 10 16 15 14 13 12 11 47 48 49 50 51 52 53 46 45 44 43 42 41 21 96 95 85 84 83 72 73 74 75 76 77 78 79 80 81 82 97 98 99 100 101 5 4 120 123 122 
